benchmarks/bfuzz0/2049179051943918195270576561182537451.smt2
(set-logic QF_FP)
(declare-const x0 (_ FloatingPoint 11 53))
(declare-const x1 (_ FloatingPoint 11 53))
(declare-const x2 (_ FloatingPoint 11 53))
(declare-const x3 (_ FloatingPoint 11 53))
(declare-const x4 (_ FloatingPoint 11 53))
(declare-const x5 (_ FloatingPoint 11 53))
(declare-const x6 (_ FloatingPoint 11 53))
(declare-const x7 (_ FloatingPoint 11 53))
(declare-const x8 (_ FloatingPoint 11 53))
(declare-const x9 (_ FloatingPoint 11 53))
(declare-const x10 (_ FloatingPoint 11 53))
(declare-const x11 (_ FloatingPoint 11 53))
(declare-const x12 (_ FloatingPoint 11 53))
(declare-const x13 (_ FloatingPoint 11 53))
(assert (fp.eq (fp.neg (fp.sub RNE x7 x2)) (fp.mul RNE (fp.div RNE x11 x8) (fp.div RNE x10 x7))))
(assert (fp.eq (fp.neg (fp.sub RNE x5 x7)) (fp.div RNE (fp.neg x13) (fp.div RNE x13 x10))))
(assert (fp.geq (fp.sub RNE (fp.mul RNE x4 x7) (fp.add RNE x12 x7)) (fp.add RNE (fp.add RNE x8 x10) (fp.sub RNE x12 x2))))
(assert (fp.lt (fp.neg (fp.sub RNE x9 x1)) (fp.div RNE (fp.mul RNE x4 x4) (fp.mul RNE x1 x6))))
(check-sat)
