db/data/2049179051943918195270576561182537451.z3.out
-------------------
2500.152250394
